local_stuff/loop_inv_stuff/loop_inv_oai/repo/z3/6.out
STDOUT:
(error "line 7 column 37: unknown constant inv (Int Int Int Int Int Int Int) 
declared: (declare-fun inv (Int Int Int Int Int Int) Bool) ")
(error "line 11 column 20: unexpected character")
(error "line 11 column 30: unexpected character")
(error "line 11 column 40: unexpected character")
(error "line 11 column 49: unexpected character")
(error "line 11 column 58: unexpected character")
(error "line 11 column 67: unexpected character")
(error "line 13 column 22: unexpected character")
(error "line 14 column 36: unexpected character")
(error "line 14 column 45: unexpected character")
(error "line 15 column 22: unexpected character")
(error "line 16 column 23: unexpected character")
(error "line 16 column 34: unexpected character")
(error "line 16 column 45: unexpected character")
(error "line 17 column 20: unexpected character")
(error "line 17 column 24: unexpected character")
(error "line 17 column 28: unexpected character")
(error "line 17 column 31: unexpected character")
(error "line 17 column 39: unexpected character")
(error "line 17 column 42: unexpected character")
(error "line 21 column 42: unknown constant inv (Int Int Int Int Int Int Int) 
declared: (declare-fun inv (Int Int Int Int Int Int) Bool) ")
sat
(
  (define-fun inv ((x!0 Int) (x!1 Int) (x!2 Int) (x!3 Int) (x!4 Int) (x!5 Int)) Bool
    false)
)


STDERR:
